(set-info :source |printed by MathSAT|)
(declare-fun call_PosEdge3._Y_.next () Bool)
(declare-fun param_qfok.next () Bool)
(declare-fun call__main_.call_Edge._Y_ () Bool)
(declare-fun call__main_.call_one_button_accept.ob () Bool)
(declare-fun call__main_.ite.next () Bool)
(declare-fun param_vs.next () Int)
(declare-fun flby.next () Bool)
(declare-fun param_battok () Bool)
(declare-fun call__main_.flby () Bool)
(declare-fun call__main_.call_cc_allowed.ccall.next () Bool)
(declare-fun call__main_.call_PosEdge.flby.next () Bool)
(declare-fun call__main_.call_cc_allowed.call_MoreThanTwoSec._Y_ () Bool)
(declare-fun param_ccsetd.next () Bool)
(declare-fun call__main_.call_one_button_accept.call_prev_no_button.flby () Bool)
(declare-fun cca () Bool)
(declare-fun param_ccd.next () Bool)
(declare-fun call__main_.call_PosEdge._Y_.next () Bool)
(declare-fun call__main_.flby.next () Bool)
(declare-fun call__main_.ccall () Bool)
(declare-fun call_PosEdge4.flby.next () Bool)
(declare-fun call__main_.ite4 () Bool)
(declare-fun call_PosEdge._Y_.next () Bool)
(declare-fun call__main_.call_PosEdge2._Y_.next () Bool)
(declare-fun param_sdok.next () Bool)
(declare-fun call__main_.call_cc_allowed.call_MoreThanTwoSec.flby2 () Bool)
(declare-fun param_bpa () Bool)
(declare-fun param_igsw.next () Bool)
(declare-fun param_cccanc.next () Bool)
(declare-fun call__main_.call_one_button_accept.call_PosEdge.flby.next () Bool)
(declare-fun _OK_ () Bool)
(declare-fun call_PosEdge3.flby.next () Bool)
(declare-fun call__main_.flby2 () Bool)
(declare-fun call__main_.call_one_button_accept.oba.next () Bool)
(declare-fun call_PosEdge._Y_ () Bool)
(declare-fun call__main_.param () Bool)
(declare-fun call_PosEdge.flby () Bool)
(declare-fun call__main_.ite3 () Bool)
(declare-fun param_gearok.next () Bool)
(declare-fun call__main_.call_one_button_accept.call_AtLeastOnceSince.ite () Bool)
(declare-fun param_ccseti.next () Bool)
(declare-fun call__main_.call_PosEdge.flby () Bool)
(declare-fun param_ccr () Bool)
(declare-fun call__main_.call_cc_allowed.call_MoreThanTwoSec._Y_.next () Bool)
(declare-fun param_ccsetd () Bool)
(declare-fun call__main_.call_one_button_accept.call_prev_no_button.pnb.next () Bool)
(declare-fun call__main_.ite3.next () Bool)
(declare-fun call__main_.call_Edge._Y_.next () Bool)
(declare-fun param_ccseti () Bool)
(declare-fun call__main_.cca.next () Bool)
(declare-fun call__main_.call_one_button_accept.pnb.next () Bool)
(declare-fun call__main_.call_one_button_accept.ite2.next () Bool)
(declare-fun call__main_.cca () Bool)
(declare-fun flby () Bool)
(declare-fun param_cconoff () Bool)
(declare-fun call__main_.call_Edge.flby () Bool)
(declare-fun call__main_.call_one_button_accept.call_prev_no_button.flby.next () Bool)
(declare-fun call__main_.ccall.next () Bool)
(declare-fun cca.next () Bool)
(declare-fun _OK_.next () Bool)
(declare-fun call__main_.call_one_button_accept.call_PosEdge.flby () Bool)
(declare-fun param_qfok () Bool)
(declare-fun call__main_.ccont.next () Bool)
(declare-fun call__main_.call_PosEdge2.flby () Bool)
(declare-fun call_PosEdge2.flby () Bool)
(declare-fun call__main_.call_PosEdge2._Y_ () Bool)
(declare-fun param_accok.next () Bool)
(declare-fun env () Bool)
(declare-fun call_PosEdge2._Y_.next () Bool)
(declare-fun param_battok.next () Bool)
(declare-fun call__main_.call_one_button_accept.ite2 () Bool)
(declare-fun call__main_.call_cc_allowed.call_MoreThanOneSec.flby () Bool)
(declare-fun call_PosEdge4._Y_ () Bool)
(declare-fun call__main_.call_one_button_accept.call_one_button.ob.next () Bool)
(declare-fun call__main_.call_one_button_accept.call_AtLeastOnceSince.XsinceY.next () Bool)
(declare-fun call__main_.call_one_button_accept.ob.next () Bool)
(declare-fun call__main_.ccont () Bool)
(declare-fun call_PosEdge4._Y_.next () Bool)
(declare-fun param_ccr.next () Bool)
(declare-fun call__main_.call_cc_allowed.ccall () Bool)
(declare-fun param_cconoff.next () Bool)
(declare-fun ite.next () Bool)
(declare-fun call__main_.call_one_button_accept.call_PosEdge._Y_.next () Bool)
(declare-fun param_vs () Int)
(declare-fun call_PosEdge.flby.next () Bool)
(declare-fun call__main_.ite2.next () Bool)
(declare-fun call__main_.call_one_button_accept.oba () Bool)
(declare-fun call_PosEdge4.flby () Bool)
(declare-fun ccont () Bool)
(declare-fun call__main_.call_PosEdge._Y_ () Bool)
(declare-fun call__main_.param.next () Bool)
(declare-fun call__main_.call_Edge.flby.next () Bool)
(declare-fun param_cccanc () Bool)
(declare-fun call__main_.flby2.next () Bool)
(declare-fun call__main_.call_one_button_accept.call_AtLeastOnceSince.XsinceY () Bool)
(declare-fun env.next () Bool)
(declare-fun call_PosEdge2._Y_ () Bool)
(declare-fun call__main_.call_one_button_accept.call_PosEdge._Y_ () Bool)
(declare-fun call__main_.call_cc_allowed.call_MoreThanTwoSec.flby () Bool)
(declare-fun param_bpa.next () Bool)
(declare-fun param_gearok () Bool)
(declare-fun call__main_.call_one_button_accept.call_prev_no_button.pnb () Bool)
(declare-fun param_igsw () Bool)
(declare-fun call__main_.call_one_button_accept.pnb () Bool)
(declare-fun call__main_.call_one_button_accept.call_AtLeastOnceSince.flby () Bool)
(declare-fun param_sdok () Bool)
(declare-fun call__main_.call_one_button_accept.ite () Bool)
(declare-fun call_PosEdge3.flby () Bool)
(declare-fun ite () Bool)
(declare-fun call_PosEdge2.flby.next () Bool)
(declare-fun call__main_.ite4.next () Bool)
(declare-fun call__main_.call_cc_allowed.call_MoreThanOneSec.flby.next () Bool)
(declare-fun call__main_.call_one_button_accept.call_AtLeastOnceSince.flby.next () Bool)
(declare-fun call__main_.call_one_button_accept.call_AtLeastOnceSince.ite.next () Bool)
(declare-fun call__main_.call_cc_allowed.call_MoreThanTwoSec.flby.next () Bool)
(declare-fun ccont.next () Bool)
(declare-fun call__main_.call_one_button_accept.ite.next () Bool)
(declare-fun call__main_.call_cc_allowed.call_MoreThanOneSec._Y_.next () Bool)
(declare-fun param_accok () Bool)
(declare-fun call_PosEdge3._Y_ () Bool)
(declare-fun call__main_.call_PosEdge2.flby.next () Bool)
(declare-fun call__main_.call_cc_allowed.call_MoreThanTwoSec.flby2.next () Bool)
(declare-fun call__main_.call_cc_allowed.call_MoreThanOneSec._Y_ () Bool)
(declare-fun call__main_.call_one_button_accept.call_one_button.ob () Bool)
(define-fun .def_897 () Bool (= call_PosEdge4.flby.next call_PosEdge4._Y_.next))
(define-fun .def_895 () Bool (= call_PosEdge3.flby.next call_PosEdge3._Y_.next))
(define-fun .def_893 () Bool (= call_PosEdge2.flby.next call_PosEdge2._Y_.next))
(define-fun .def_891 () Bool (= call_PosEdge.flby.next call_PosEdge._Y_.next))
(define-fun .def_889 () Bool (= call__main_.call_one_button_accept.call_AtLeastOnceSince.XsinceY.next call__main_.call_one_button_accept.call_AtLeastOnceSince.ite.next))
(define-fun .def_886 () Bool (= call__main_.call_one_button_accept.call_PosEdge.flby.next call__main_.call_one_button_accept.call_PosEdge._Y_.next))
(define-fun .def_884 () Bool (= call__main_.call_one_button_accept.call_AtLeastOnceSince.flby.next call__main_.call_one_button_accept.call_AtLeastOnceSince.ite.next))
(define-fun .def_885 () Bool (or call__main_.call_one_button_accept.call_PosEdge._Y_.next .def_884))
(define-fun .def_887 () Bool (and .def_885 .def_886))
(define-fun .def_873 () Bool (not param_ccsetd.next))
(define-fun .def_878 () Bool (and param_ccseti.next .def_873))
(define-fun .def_792 () Bool (not param_ccr.next))
(define-fun .def_879 () Bool (and .def_792 .def_878))
(define-fun .def_872 () Bool (not param_ccseti.next))
(define-fun .def_876 () Bool (and param_ccsetd.next .def_872))
(define-fun .def_877 () Bool (and .def_792 .def_876))
(define-fun .def_880 () Bool (or .def_877 .def_879))
(define-fun .def_874 () Bool (and .def_872 .def_873))
(define-fun .def_875 () Bool (and param_ccr.next .def_874))
(define-fun .def_881 () Bool (or .def_875 .def_880))
(define-fun .def_882 () Bool (= call__main_.call_one_button_accept.call_one_button.ob.next .def_881))
(define-fun .def_870 () Bool (= call__main_.call_one_button_accept.call_prev_no_button.flby.next call__main_.call_one_button_accept.call_prev_no_button.pnb.next))
(define-fun .def_868 () Bool (= call__main_.call_one_button_accept.pnb.next call__main_.call_one_button_accept.call_prev_no_button.pnb.next))
(define-fun .def_864 () Bool (= call__main_.call_one_button_accept.ob.next call__main_.call_one_button_accept.call_one_button.ob.next))
(define-fun .def_860 () Bool (= call__main_.call_one_button_accept.ite.next call__main_.call_one_button_accept.ite2.next))
(define-fun .def_857 () Bool (and call__main_.call_one_button_accept.ob.next call__main_.call_one_button_accept.pnb.next))
(define-fun .def_859 () Bool (not .def_857))
(define-fun .def_861 () Bool (or .def_859 .def_860))
(define-fun .def_854 () Bool (not call__main_.call_one_button_accept.ite2.next))
(define-fun .def_858 () Bool (or .def_854 .def_857))
(define-fun .def_862 () Bool (and .def_858 .def_861))
(define-fun .def_865 () Bool (and .def_862 .def_864))
(define-fun .def_852 () Bool (= call__main_.call_one_button_accept.oba.next call__main_.call_one_button_accept.ite2.next))
(define-fun .def_849 () Bool (= call__main_.call_cc_allowed.call_MoreThanTwoSec.flby2.next call__main_.call_cc_allowed.call_MoreThanTwoSec._Y_.next))
(define-fun .def_847 () Bool (= call__main_.call_cc_allowed.call_MoreThanOneSec.flby.next call__main_.call_cc_allowed.call_MoreThanOneSec._Y_.next))
(define-fun .def_843 () Bool (not param_cccanc.next))
(define-fun .def_838 () Bool (<= param_vs.next 200))
(define-fun .def_836 () Bool (<= 35 param_vs.next))
(define-fun .def_828 () Bool (not param_bpa.next))
(define-fun .def_829 () Bool (and call__main_.ccont.next .def_828))
(define-fun .def_830 () Bool (and param_battok.next .def_829))
(define-fun .def_831 () Bool (and param_gearok.next .def_830))
(define-fun .def_832 () Bool (and param_qfok.next .def_831))
(define-fun .def_834 () Bool (and .def_832 call__main_.call_cc_allowed.call_MoreThanOneSec._Y_.next))
(define-fun .def_837 () Bool (and .def_834 .def_836))
(define-fun .def_839 () Bool (and .def_837 .def_838))
(define-fun .def_841 () Bool (and .def_839 call__main_.call_cc_allowed.call_MoreThanTwoSec._Y_.next))
(define-fun .def_844 () Bool (and .def_841 .def_843))
(define-fun .def_845 () Bool (= call__main_.call_cc_allowed.ccall.next .def_844))
(define-fun .def_822 () Bool (= call__main_.call_PosEdge2._Y_.next call__main_.call_PosEdge2.flby.next))
(define-fun .def_820 () Bool (= call__main_.call_PosEdge._Y_.next call__main_.call_PosEdge.flby.next))
(define-fun .def_818 () Bool (= call__main_.call_Edge._Y_.next call__main_.call_Edge.flby.next))
(define-fun .def_815 () Bool (not call__main_.call_one_button_accept.call_PosEdge._Y_.next))
(define-fun .def_813 () Bool (= call__main_.param.next call__main_.call_one_button_accept.call_AtLeastOnceSince.ite.next))
(define-fun .def_816 () Bool (or .def_813 .def_815))
(define-fun .def_809 () Bool (= call__main_.ccall.next call__main_.call_cc_allowed.ccall.next))
(define-fun .def_803 () Bool (and call__main_.ccall.next call__main_.call_one_button_accept.oba.next))
(define-fun .def_805 () Bool (not .def_803))
(define-fun .def_806 () Bool (or call__main_.ite4.next .def_805))
(define-fun .def_801 () Bool (= call__main_.ite3.next call__main_.ite4.next))
(define-fun .def_804 () Bool (or .def_801 .def_803))
(define-fun .def_807 () Bool (and .def_804 .def_806))
(define-fun .def_810 () Bool (and .def_807 .def_809))
(define-fun .def_799 () Bool (= call__main_.flby2.next call__main_.cca.next))
(define-fun .def_797 () Bool (= call__main_.flby.next call__main_.ccont.next))
(define-fun .def_794 () Bool (or param_ccr.next call__main_.call_one_button_accept.ite.next))
(define-fun .def_791 () Bool (= call__main_.call_one_button_accept.ite.next call__main_.call_one_button_accept.call_AtLeastOnceSince.XsinceY.next))
(define-fun .def_793 () Bool (or .def_791 .def_792))
(define-fun .def_795 () Bool (and .def_793 .def_794))
(define-fun .def_785 () Bool (not call_PosEdge._Y_.next))
(define-fun .def_781 () Bool (or call_PosEdge2._Y_.next call_PosEdge3._Y_.next))
(define-fun .def_783 () Bool (or .def_781 call_PosEdge4._Y_.next))
(define-fun .def_784 () Bool (= ite.next .def_783))
(define-fun .def_786 () Bool (or .def_784 .def_785))
(define-fun .def_778 () Bool (or ite.next call_PosEdge._Y_.next))
(define-fun .def_787 () Bool (and .def_778 .def_786))
(define-fun .def_775 () Bool (= flby.next env.next))
(define-fun .def_772 () Bool (= cca.next call__main_.cca.next))
(define-fun .def_769 () Bool (= call__main_.ccont.next ccont.next))
(define-fun .def_767 () Bool (= _OK_.next ite.next))
(define-fun .def_770 () Bool (and .def_767 .def_769))
(define-fun .def_773 () Bool (and .def_770 .def_772))
(define-fun .def_776 () Bool (and .def_773 .def_775))
(define-fun .def_788 () Bool (and .def_776 .def_787))
(define-fun .def_796 () Bool (and .def_788 .def_795))
(define-fun .def_798 () Bool (and .def_796 .def_797))
(define-fun .def_800 () Bool (and .def_798 .def_799))
(define-fun .def_811 () Bool (and .def_800 .def_810))
(define-fun .def_817 () Bool (and .def_811 .def_816))
(define-fun .def_819 () Bool (and .def_817 .def_818))
(define-fun .def_821 () Bool (and .def_819 .def_820))
(define-fun .def_823 () Bool (and .def_821 .def_822))
(define-fun .def_846 () Bool (and .def_823 .def_845))
(define-fun .def_848 () Bool (and .def_846 .def_847))
(define-fun .def_850 () Bool (and .def_848 .def_849))
(define-fun .def_853 () Bool (and .def_850 .def_852))
(define-fun .def_866 () Bool (and .def_853 .def_865))
(define-fun .def_869 () Bool (and .def_866 .def_868))
(define-fun .def_871 () Bool (and .def_869 .def_870))
(define-fun .def_883 () Bool (and .def_871 .def_882))
(define-fun .def_888 () Bool (and .def_883 .def_887))
(define-fun .def_890 () Bool (and .def_888 .def_889))
(define-fun .def_892 () Bool (and .def_890 .def_891))
(define-fun .def_894 () Bool (and .def_892 .def_893))
(define-fun .def_896 () Bool (and .def_894 .def_895))
(define-fun .def_898 () Bool (and .def_896 .def_897))
(define-fun .def_650 () Bool (= call_PosEdge4.flby call_PosEdge4._Y_))
(define-fun .def_648 () Bool (= call_PosEdge3.flby call_PosEdge3._Y_))
(define-fun .def_646 () Bool (= call_PosEdge2.flby call_PosEdge2._Y_))
(define-fun .def_644 () Bool (= call_PosEdge.flby call_PosEdge._Y_))
(define-fun .def_642 () Bool (= call__main_.call_one_button_accept.call_AtLeastOnceSince.XsinceY call__main_.call_one_button_accept.call_AtLeastOnceSince.ite))
(define-fun .def_639 () Bool (= call__main_.call_one_button_accept.call_PosEdge.flby call__main_.call_one_button_accept.call_PosEdge._Y_))
(define-fun .def_637 () Bool (= call__main_.call_one_button_accept.call_AtLeastOnceSince.flby call__main_.call_one_button_accept.call_AtLeastOnceSince.ite))
(define-fun .def_638 () Bool (or call__main_.call_one_button_accept.call_PosEdge._Y_ .def_637))
(define-fun .def_640 () Bool (and .def_638 .def_639))
(define-fun .def_626 () Bool (not param_ccsetd))
(define-fun .def_631 () Bool (and param_ccseti .def_626))
(define-fun .def_538 () Bool (not param_ccr))
(define-fun .def_632 () Bool (and .def_538 .def_631))
(define-fun .def_624 () Bool (not param_ccseti))
(define-fun .def_629 () Bool (and .def_624 param_ccsetd))
(define-fun .def_630 () Bool (and .def_538 .def_629))
(define-fun .def_633 () Bool (or .def_630 .def_632))
(define-fun .def_627 () Bool (and .def_624 .def_626))
(define-fun .def_628 () Bool (and param_ccr .def_627))
(define-fun .def_634 () Bool (or .def_628 .def_633))
(define-fun .def_635 () Bool (= call__main_.call_one_button_accept.call_one_button.ob .def_634))
(define-fun .def_621 () Bool (= call__main_.call_one_button_accept.call_prev_no_button.flby call__main_.call_one_button_accept.call_prev_no_button.pnb))
(define-fun .def_619 () Bool (= call__main_.call_one_button_accept.pnb call__main_.call_one_button_accept.call_prev_no_button.pnb))
(define-fun .def_615 () Bool (= call__main_.call_one_button_accept.ob call__main_.call_one_button_accept.call_one_button.ob))
(define-fun .def_611 () Bool (= call__main_.call_one_button_accept.ite call__main_.call_one_button_accept.ite2))
(define-fun .def_608 () Bool (and call__main_.call_one_button_accept.ob call__main_.call_one_button_accept.pnb))
(define-fun .def_610 () Bool (not .def_608))
(define-fun .def_612 () Bool (or .def_610 .def_611))
(define-fun .def_605 () Bool (not call__main_.call_one_button_accept.ite2))
(define-fun .def_609 () Bool (or .def_605 .def_608))
(define-fun .def_613 () Bool (and .def_609 .def_612))
(define-fun .def_616 () Bool (and .def_613 .def_615))
(define-fun .def_603 () Bool (= call__main_.call_one_button_accept.oba call__main_.call_one_button_accept.ite2))
(define-fun .def_600 () Bool (= call__main_.call_cc_allowed.call_MoreThanTwoSec.flby2 call__main_.call_cc_allowed.call_MoreThanTwoSec._Y_))
(define-fun .def_598 () Bool (= call__main_.call_cc_allowed.call_MoreThanOneSec.flby call__main_.call_cc_allowed.call_MoreThanOneSec._Y_))
(define-fun .def_594 () Bool (not param_cccanc))
(define-fun .def_589 () Bool (<= param_vs 200))
(define-fun .def_587 () Bool (<= 35 param_vs))
(define-fun .def_579 () Bool (not param_bpa))
(define-fun .def_580 () Bool (and call__main_.ccont .def_579))
(define-fun .def_581 () Bool (and param_battok .def_580))
(define-fun .def_582 () Bool (and param_gearok .def_581))
(define-fun .def_583 () Bool (and param_qfok .def_582))
(define-fun .def_585 () Bool (and .def_583 call__main_.call_cc_allowed.call_MoreThanOneSec._Y_))
(define-fun .def_588 () Bool (and .def_585 .def_587))
(define-fun .def_590 () Bool (and .def_588 .def_589))
(define-fun .def_592 () Bool (and .def_590 call__main_.call_cc_allowed.call_MoreThanTwoSec._Y_))
(define-fun .def_595 () Bool (and .def_592 .def_594))
(define-fun .def_596 () Bool (= call__main_.call_cc_allowed.ccall .def_595))
(define-fun .def_573 () Bool (= call__main_.call_PosEdge2.flby call__main_.call_PosEdge2._Y_))
(define-fun .def_570 () Bool (= call__main_.call_PosEdge.flby call__main_.call_PosEdge._Y_))
(define-fun .def_567 () Bool (= call__main_.call_Edge.flby call__main_.call_Edge._Y_))
(define-fun .def_563 () Bool (not call__main_.call_one_button_accept.call_PosEdge._Y_))
(define-fun .def_561 () Bool (= call__main_.param call__main_.call_one_button_accept.call_AtLeastOnceSince.ite))
(define-fun .def_564 () Bool (or .def_561 .def_563))
(define-fun .def_556 () Bool (= call__main_.ccall call__main_.call_cc_allowed.ccall))
(define-fun .def_550 () Bool (and call__main_.ccall call__main_.call_one_button_accept.oba))
(define-fun .def_552 () Bool (not .def_550))
(define-fun .def_553 () Bool (or call__main_.ite4 .def_552))
(define-fun .def_548 () Bool (= call__main_.ite3 call__main_.ite4))
(define-fun .def_551 () Bool (or .def_548 .def_550))
(define-fun .def_554 () Bool (and .def_551 .def_553))
(define-fun .def_557 () Bool (and .def_554 .def_556))
(define-fun .def_545 () Bool (= call__main_.flby2 call__main_.cca))
(define-fun .def_543 () Bool (= call__main_.flby call__main_.ccont))
(define-fun .def_540 () Bool (or call__main_.call_one_button_accept.ite param_ccr))
(define-fun .def_536 () Bool (= call__main_.call_one_button_accept.ite call__main_.call_one_button_accept.call_AtLeastOnceSince.XsinceY))
(define-fun .def_539 () Bool (or .def_536 .def_538))
(define-fun .def_541 () Bool (and .def_539 .def_540))
(define-fun .def_530 () Bool (not call_PosEdge._Y_))
(define-fun .def_526 () Bool (or call_PosEdge2._Y_ call_PosEdge3._Y_))
(define-fun .def_528 () Bool (or .def_526 call_PosEdge4._Y_))
(define-fun .def_529 () Bool (= ite .def_528))
(define-fun .def_531 () Bool (or .def_529 .def_530))
(define-fun .def_523 () Bool (or ite call_PosEdge._Y_))
(define-fun .def_532 () Bool (and .def_523 .def_531))
(define-fun .def_520 () Bool (= flby env))
(define-fun .def_517 () Bool (= cca call__main_.cca))
(define-fun .def_513 () Bool (= ccont call__main_.ccont))
(define-fun .def_510 () Bool (= _OK_ ite))
(define-fun .def_514 () Bool (and .def_510 .def_513))
(define-fun .def_518 () Bool (and .def_514 .def_517))
(define-fun .def_521 () Bool (and .def_518 .def_520))
(define-fun .def_533 () Bool (and .def_521 .def_532))
(define-fun .def_542 () Bool (and .def_533 .def_541))
(define-fun .def_544 () Bool (and .def_542 .def_543))
(define-fun .def_546 () Bool (and .def_544 .def_545))
(define-fun .def_558 () Bool (and .def_546 .def_557))
(define-fun .def_565 () Bool (and .def_558 .def_564))
(define-fun .def_568 () Bool (and .def_565 .def_567))
(define-fun .def_571 () Bool (and .def_568 .def_570))
(define-fun .def_574 () Bool (and .def_571 .def_573))
(define-fun .def_597 () Bool (and .def_574 .def_596))
(define-fun .def_599 () Bool (and .def_597 .def_598))
(define-fun .def_601 () Bool (and .def_599 .def_600))
(define-fun .def_604 () Bool (and .def_601 .def_603))
(define-fun .def_617 () Bool (and .def_604 .def_616))
(define-fun .def_620 () Bool (and .def_617 .def_619))
(define-fun .def_622 () Bool (and .def_620 .def_621))
(define-fun .def_636 () Bool (and .def_622 .def_635))
(define-fun .def_641 () Bool (and .def_636 .def_640))
(define-fun .def_643 () Bool (and .def_641 .def_642))
(define-fun .def_645 () Bool (and .def_643 .def_644))
(define-fun .def_647 () Bool (and .def_645 .def_646))
(define-fun .def_649 () Bool (and .def_647 .def_648))
(define-fun .def_651 () Bool (and .def_649 .def_650))
(define-fun .def_899 () Bool (and .def_651 .def_898))
(define-fun .def_761 () Bool (and .def_538 param_ccr.next))
(define-fun .def_763 () Bool (= .def_761 call_PosEdge4.flby.next))
(define-fun .def_756 () Bool (and .def_626 param_ccsetd.next))
(define-fun .def_758 () Bool (= .def_756 call_PosEdge3.flby.next))
(define-fun .def_751 () Bool (and .def_624 param_ccseti.next))
(define-fun .def_753 () Bool (= .def_751 call_PosEdge2.flby.next))
(define-fun .def_744 () Bool (not cca))
(define-fun .def_746 () Bool (and .def_744 cca.next))
(define-fun .def_748 () Bool (= .def_746 call_PosEdge.flby.next))
(define-fun .def_740 () Bool (or call__main_.call_one_button_accept.call_AtLeastOnceSince.XsinceY call__main_.param.next))
(define-fun .def_742 () Bool (= .def_740 call__main_.call_one_button_accept.call_AtLeastOnceSince.flby.next))
(define-fun .def_670 () Bool (not call__main_.ccont))
(define-fun .def_736 () Bool (and .def_670 call__main_.ccont.next))
(define-fun .def_738 () Bool (= .def_736 call__main_.call_one_button_accept.call_PosEdge.flby.next))
(define-fun .def_731 () Bool (and .def_538 .def_627))
(define-fun .def_733 () Bool (= .def_731 call__main_.call_one_button_accept.call_prev_no_button.flby.next))
(define-fun .def_727 () Bool (and call__main_.call_cc_allowed.call_MoreThanTwoSec.flby param_accok.next))
(define-fun .def_729 () Bool (= .def_727 call__main_.call_cc_allowed.call_MoreThanTwoSec.flby2.next))
(define-fun .def_724 () Bool (and param_accok param_accok.next))
(define-fun .def_725 () Bool (= call__main_.call_cc_allowed.call_MoreThanTwoSec.flby.next .def_724))
(define-fun .def_717 () Bool (and param_sdok.next param_sdok))
(define-fun .def_719 () Bool (= .def_717 call__main_.call_cc_allowed.call_MoreThanOneSec.flby.next))
(define-fun .def_707 () Bool (not param_cconoff))
(define-fun .def_708 () Bool (and param_cconoff.next .def_707))
(define-fun .def_713 () Bool (= .def_708 call__main_.call_PosEdge2.flby.next))
(define-fun .def_710 () Bool (= .def_708 call__main_.call_PosEdge.flby.next))
(define-fun .def_699 () Bool (not param_igsw.next))
(define-fun .def_461 () Bool (not param_igsw))
(define-fun .def_698 () Bool (and .def_461 param_igsw.next))
(define-fun .def_700 () Bool (and .def_698 .def_699))
(define-fun .def_701 () Bool (and param_igsw .def_700))
(define-fun .def_703 () Bool (= .def_701 call__main_.call_Edge.flby.next))
(define-fun .def_695 () Bool (= call__main_.flby2.next call__main_.ite4.next))
(define-fun .def_691 () Bool (= call__main_.cca call__main_.param.next))
(define-fun .def_688 () Bool (= call__main_.ite2.next call__main_.flby.next))
(define-fun .def_684 () Bool (not call__main_.ite3.next))
(define-fun .def_685 () Bool (or call__main_.ccall.next .def_684))
(define-fun .def_681 () Bool (not call__main_.ccall.next))
(define-fun .def_679 () Bool (= call__main_.cca call__main_.ite3.next))
(define-fun .def_682 () Bool (or .def_679 .def_681))
(define-fun .def_672 () Bool (and .def_670 call__main_.call_PosEdge2._Y_.next))
(define-fun .def_674 () Bool (not .def_672))
(define-fun .def_675 () Bool (or call__main_.ite.next .def_674))
(define-fun .def_669 () Bool (= call__main_.ccont call__main_.ite.next))
(define-fun .def_673 () Bool (or .def_669 .def_672))
(define-fun .def_676 () Bool (and .def_673 .def_675))
(define-fun .def_664 () Bool (not call__main_.ite2.next))
(define-fun .def_660 () Bool (and call__main_.ccont call__main_.call_PosEdge._Y_.next))
(define-fun .def_658 () Bool (or param_ccd.next call__main_.call_Edge._Y_.next))
(define-fun .def_661 () Bool (or .def_658 .def_660))
(define-fun .def_663 () Bool (not .def_661))
(define-fun .def_665 () Bool (or .def_663 .def_664))
(define-fun .def_655 () Bool (= call__main_.ite.next call__main_.ite2.next))
(define-fun .def_662 () Bool (or .def_655 .def_661))
(define-fun .def_666 () Bool (and .def_662 .def_665))
(define-fun .def_668 () Bool (and .def_666 flby.next))
(define-fun .def_677 () Bool (and .def_668 .def_676))
(define-fun .def_683 () Bool (and .def_677 .def_682))
(define-fun .def_686 () Bool (and .def_683 .def_685))
(define-fun .def_689 () Bool (and .def_686 .def_688))
(define-fun .def_692 () Bool (and .def_689 .def_691))
(define-fun .def_696 () Bool (and .def_692 .def_695))
(define-fun .def_704 () Bool (and .def_696 .def_703))
(define-fun .def_711 () Bool (and .def_704 .def_710))
(define-fun .def_714 () Bool (and .def_711 .def_713))
(define-fun .def_720 () Bool (and .def_714 .def_719))
(define-fun .def_726 () Bool (and .def_720 .def_725))
(define-fun .def_730 () Bool (and .def_726 .def_729))
(define-fun .def_734 () Bool (and .def_730 .def_733))
(define-fun .def_739 () Bool (and .def_734 .def_738))
(define-fun .def_743 () Bool (and .def_739 .def_742))
(define-fun .def_749 () Bool (and .def_743 .def_748))
(define-fun .def_754 () Bool (and .def_749 .def_753))
(define-fun .def_759 () Bool (and .def_754 .def_758))
(define-fun .def_764 () Bool (and .def_759 .def_763))
(define-fun .def_900 () Bool (and .def_764 .def_899))
(assert .def_900)
